; benchmark generated from python API
(set-info :status unknown)
(declare-fun cell_1_7 () Int)
(declare-fun cell_1_8 () Int)
(declare-fun cell_2_1 () Int)
(declare-fun cell_2_4 () Int)
(declare-fun cell_3_2 () Int)
(declare-fun cell_3_4 () Int)
(declare-fun cell_4_6 () Int)
(declare-fun cell_4_8 () Int)
(declare-fun cell_5_2 () Int)
(declare-fun cell_5_3 () Int)
(declare-fun cell_6_6 () Int)
(declare-fun cell_6_9 () Int)
(declare-fun cell_7_5 () Int)
(declare-fun cell_7_7 () Int)
(declare-fun cell_8_9 () Int)
(declare-fun cell_9_1 () Int)
(declare-fun cell_1_1 () Int)
(declare-fun cell_3_1 () Int)
(declare-fun cell_4_1 () Int)
(declare-fun cell_5_1 () Int)
(declare-fun cell_6_1 () Int)
(declare-fun cell_7_1 () Int)
(declare-fun cell_8_1 () Int)
(declare-fun cell_1_2 () Int)
(declare-fun cell_2_2 () Int)
(declare-fun cell_4_2 () Int)
(declare-fun cell_6_2 () Int)
(declare-fun cell_7_2 () Int)
(declare-fun cell_8_2 () Int)
(declare-fun cell_9_2 () Int)
(declare-fun cell_1_3 () Int)
(declare-fun cell_2_3 () Int)
(declare-fun cell_3_3 () Int)
(declare-fun cell_4_3 () Int)
(declare-fun cell_6_3 () Int)
(declare-fun cell_7_3 () Int)
(declare-fun cell_8_3 () Int)
(declare-fun cell_9_3 () Int)
(declare-fun cell_1_4 () Int)
(declare-fun cell_4_4 () Int)
(declare-fun cell_5_4 () Int)
(declare-fun cell_6_4 () Int)
(declare-fun cell_7_4 () Int)
(declare-fun cell_8_4 () Int)
(declare-fun cell_9_4 () Int)
(declare-fun cell_1_5 () Int)
(declare-fun cell_2_5 () Int)
(declare-fun cell_3_5 () Int)
(declare-fun cell_4_5 () Int)
(declare-fun cell_5_5 () Int)
(declare-fun cell_6_5 () Int)
(declare-fun cell_8_5 () Int)
(declare-fun cell_9_5 () Int)
(declare-fun cell_1_6 () Int)
(declare-fun cell_2_6 () Int)
(declare-fun cell_3_6 () Int)
(declare-fun cell_5_6 () Int)
(declare-fun cell_7_6 () Int)
(declare-fun cell_8_6 () Int)
(declare-fun cell_9_6 () Int)
(declare-fun cell_2_7 () Int)
(declare-fun cell_3_7 () Int)
(declare-fun cell_4_7 () Int)
(declare-fun cell_5_7 () Int)
(declare-fun cell_6_7 () Int)
(declare-fun cell_8_7 () Int)
(declare-fun cell_9_7 () Int)
(declare-fun cell_2_8 () Int)
(declare-fun cell_3_8 () Int)
(declare-fun cell_5_8 () Int)
(declare-fun cell_6_8 () Int)
(declare-fun cell_7_8 () Int)
(declare-fun cell_8_8 () Int)
(declare-fun cell_9_8 () Int)
(declare-fun cell_1_9 () Int)
(declare-fun cell_2_9 () Int)
(declare-fun cell_3_9 () Int)
(declare-fun cell_4_9 () Int)
(declare-fun cell_5_9 () Int)
(declare-fun cell_7_9 () Int)
(declare-fun cell_9_9 () Int)
(assert
 (= cell_1_7 1))
(assert
 (= cell_1_8 2))
(assert
 (= cell_2_1 2))
(assert
 (= cell_2_4 1))
(assert
 (= cell_3_2 1))
(assert
 (= cell_3_4 2))
(assert
 (= cell_4_6 2))
(assert
 (= cell_4_8 1))
(assert
 (= cell_5_2 2))
(assert
 (= cell_5_3 1))
(assert
 (= cell_6_6 1))
(assert
 (= cell_6_9 2))
(assert
 (= cell_7_5 1))
(assert
 (= cell_7_7 2))
(assert
 (= cell_8_9 1))
(assert
 (= cell_9_1 1))
(assert
 (let (($x5447 (= cell_1_1 9)))
 (let (($x1808 (= cell_1_1 8)))
 (let (($x3741 (= cell_1_1 7)))
 (let (($x8244 (= cell_1_1 6)))
 (let (($x397 (= cell_1_1 5)))
 (let (($x3952 (= cell_1_1 4)))
 (let (($x6915 (= cell_1_1 3)))
 (let (($x8886 (= cell_1_1 2)))
 (let (($x6611 (= cell_1_1 1)))
 (or $x6611 $x8886 $x6915 $x3952 $x397 $x8244 $x3741 $x1808 $x5447)))))))))))
(assert
 (let (($x3189 (= cell_2_1 2)))
 (or (= cell_2_1 1) $x3189 (= cell_2_1 3) (= cell_2_1 4) (= cell_2_1 5) (= cell_2_1 6) (= cell_2_1 7) (= cell_2_1 8) (= cell_2_1 9))))
(assert
 (let (($x2436 (= cell_3_1 9)))
 (let (($x358 (= cell_3_1 8)))
 (let (($x6332 (= cell_3_1 7)))
 (let (($x2839 (= cell_3_1 6)))
 (let (($x8897 (= cell_3_1 5)))
 (let (($x8884 (= cell_3_1 4)))
 (let (($x7259 (= cell_3_1 3)))
 (let (($x6310 (= cell_3_1 2)))
 (let (($x10067 (= cell_3_1 1)))
 (or $x10067 $x6310 $x7259 $x8884 $x8897 $x2839 $x6332 $x358 $x2436)))))))))))
(assert
 (let (($x5905 (= cell_4_1 9)))
 (let (($x1981 (= cell_4_1 8)))
 (let (($x3546 (= cell_4_1 7)))
 (let (($x2650 (= cell_4_1 6)))
 (let (($x2363 (= cell_4_1 5)))
 (let (($x4332 (= cell_4_1 4)))
 (let (($x2245 (= cell_4_1 3)))
 (let (($x1698 (= cell_4_1 2)))
 (let (($x1152 (= cell_4_1 1)))
 (or $x1152 $x1698 $x2245 $x4332 $x2363 $x2650 $x3546 $x1981 $x5905)))))))))))
(assert
 (let (($x8719 (= cell_5_1 9)))
 (let (($x3311 (= cell_5_1 8)))
 (let (($x4731 (= cell_5_1 7)))
 (let (($x2279 (= cell_5_1 6)))
 (let (($x8947 (= cell_5_1 5)))
 (let (($x3825 (= cell_5_1 4)))
 (let (($x4404 (= cell_5_1 3)))
 (let (($x8221 (= cell_5_1 2)))
 (let (($x3588 (= cell_5_1 1)))
 (or $x3588 $x8221 $x4404 $x3825 $x8947 $x2279 $x4731 $x3311 $x8719)))))))))))
(assert
 (let (($x5998 (= cell_6_1 9)))
 (let (($x594 (= cell_6_1 8)))
 (let (($x8989 (= cell_6_1 7)))
 (let (($x3642 (= cell_6_1 6)))
 (let (($x1231 (= cell_6_1 5)))
 (let (($x1671 (= cell_6_1 4)))
 (let (($x4541 (= cell_6_1 3)))
 (let (($x6883 (= cell_6_1 2)))
 (let (($x3705 (= cell_6_1 1)))
 (or $x3705 $x6883 $x4541 $x1671 $x1231 $x3642 $x8989 $x594 $x5998)))))))))))
(assert
 (let (($x6441 (= cell_7_1 9)))
 (let (($x2190 (= cell_7_1 8)))
 (let (($x6718 (= cell_7_1 7)))
 (let (($x3447 (= cell_7_1 6)))
 (let (($x2323 (= cell_7_1 5)))
 (let (($x8515 (= cell_7_1 4)))
 (let (($x699 (= cell_7_1 3)))
 (let (($x135 (= cell_7_1 2)))
 (let (($x1153 (= cell_7_1 1)))
 (or $x1153 $x135 $x699 $x8515 $x2323 $x3447 $x6718 $x2190 $x6441)))))))))))
(assert
 (let (($x5620 (= cell_8_1 9)))
 (let (($x5889 (= cell_8_1 8)))
 (let (($x3619 (= cell_8_1 7)))
 (let (($x3712 (= cell_8_1 6)))
 (let (($x2119 (= cell_8_1 5)))
 (let (($x4116 (= cell_8_1 4)))
 (let (($x10129 (= cell_8_1 3)))
 (let (($x5031 (= cell_8_1 2)))
 (let (($x9732 (= cell_8_1 1)))
 (or $x9732 $x5031 $x10129 $x4116 $x2119 $x3712 $x3619 $x5889 $x5620)))))))))))
(assert
 (let (($x903 (= cell_9_1 1)))
 (or $x903 (= cell_9_1 2) (= cell_9_1 3) (= cell_9_1 4) (= cell_9_1 5) (= cell_9_1 6) (= cell_9_1 7) (= cell_9_1 8) (= cell_9_1 9))))
(assert
 (let (($x2411 (= cell_1_2 9)))
 (let (($x8151 (= cell_1_2 8)))
 (let (($x3160 (= cell_1_2 7)))
 (let (($x3129 (= cell_1_2 6)))
 (let (($x10055 (= cell_1_2 5)))
 (let (($x3789 (= cell_1_2 4)))
 (let (($x2536 (= cell_1_2 3)))
 (let (($x3238 (= cell_1_2 2)))
 (let (($x6894 (= cell_1_2 1)))
 (or $x6894 $x3238 $x2536 $x3789 $x10055 $x3129 $x3160 $x8151 $x2411)))))))))))
(assert
 (let (($x4769 (= cell_2_2 9)))
 (let (($x5534 (= cell_2_2 8)))
 (let (($x8085 (= cell_2_2 7)))
 (let (($x588 (= cell_2_2 6)))
 (let (($x9155 (= cell_2_2 5)))
 (let (($x1473 (= cell_2_2 4)))
 (let (($x4266 (= cell_2_2 3)))
 (let (($x2443 (= cell_2_2 2)))
 (let (($x1825 (= cell_2_2 1)))
 (or $x1825 $x2443 $x4266 $x1473 $x9155 $x588 $x8085 $x5534 $x4769)))))))))))
(assert
 (let (($x7439 (= cell_3_2 1)))
 (or $x7439 (= cell_3_2 2) (= cell_3_2 3) (= cell_3_2 4) (= cell_3_2 5) (= cell_3_2 6) (= cell_3_2 7) (= cell_3_2 8) (= cell_3_2 9))))
(assert
 (let (($x4825 (= cell_4_2 9)))
 (let (($x7174 (= cell_4_2 8)))
 (let (($x1263 (= cell_4_2 7)))
 (let (($x4504 (= cell_4_2 6)))
 (let (($x3429 (= cell_4_2 5)))
 (let (($x9138 (= cell_4_2 4)))
 (let (($x4955 (= cell_4_2 3)))
 (let (($x1205 (= cell_4_2 2)))
 (let (($x1497 (= cell_4_2 1)))
 (or $x1497 $x1205 $x4955 $x9138 $x3429 $x4504 $x1263 $x7174 $x4825)))))))))))
(assert
 (let (($x4857 (= cell_5_2 2)))
 (or (= cell_5_2 1) $x4857 (= cell_5_2 3) (= cell_5_2 4) (= cell_5_2 5) (= cell_5_2 6) (= cell_5_2 7) (= cell_5_2 8) (= cell_5_2 9))))
(assert
 (let (($x6496 (= cell_6_2 9)))
 (let (($x4951 (= cell_6_2 8)))
 (let (($x6435 (= cell_6_2 7)))
 (let (($x4465 (= cell_6_2 6)))
 (let (($x5999 (= cell_6_2 5)))
 (let (($x3028 (= cell_6_2 4)))
 (let (($x6856 (= cell_6_2 3)))
 (let (($x479 (= cell_6_2 2)))
 (let (($x4877 (= cell_6_2 1)))
 (or $x4877 $x479 $x6856 $x3028 $x5999 $x4465 $x6435 $x4951 $x6496)))))))))))
(assert
 (let (($x2092 (= cell_7_2 9)))
 (let (($x6646 (= cell_7_2 8)))
 (let (($x5151 (= cell_7_2 7)))
 (let (($x7570 (= cell_7_2 6)))
 (let (($x3202 (= cell_7_2 5)))
 (let (($x10217 (= cell_7_2 4)))
 (let (($x2668 (= cell_7_2 3)))
 (let (($x1512 (= cell_7_2 2)))
 (let (($x3050 (= cell_7_2 1)))
 (or $x3050 $x1512 $x2668 $x10217 $x3202 $x7570 $x5151 $x6646 $x2092)))))))))))
(assert
 (let (($x3872 (= cell_8_2 9)))
 (let (($x8216 (= cell_8_2 8)))
 (let (($x2001 (= cell_8_2 7)))
 (let (($x5055 (= cell_8_2 6)))
 (let (($x9779 (= cell_8_2 5)))
 (let (($x6502 (= cell_8_2 4)))
 (let (($x4117 (= cell_8_2 3)))
 (let (($x459 (= cell_8_2 2)))
 (let (($x8665 (= cell_8_2 1)))
 (or $x8665 $x459 $x4117 $x6502 $x9779 $x5055 $x2001 $x8216 $x3872)))))))))))
(assert
 (let (($x2362 (= cell_9_2 2)))
 (let (($x6199 (= cell_9_2 1)))
 (or $x6199 $x2362 (= cell_9_2 3) (= cell_9_2 4) (= cell_9_2 5) (= cell_9_2 6) (= cell_9_2 7) (= cell_9_2 8) (= cell_9_2 9)))))
(assert
 (let (($x6379 (= cell_1_3 9)))
 (let (($x6990 (= cell_1_3 8)))
 (let (($x6096 (= cell_1_3 7)))
 (let (($x6066 (= cell_1_3 6)))
 (let (($x982 (= cell_1_3 5)))
 (let (($x3209 (= cell_1_3 4)))
 (let (($x366 (= cell_1_3 3)))
 (let (($x1405 (= cell_1_3 2)))
 (let (($x6850 (= cell_1_3 1)))
 (or $x6850 $x1405 $x366 $x3209 $x982 $x6066 $x6096 $x6990 $x6379)))))))))))
(assert
 (let (($x201 (= cell_2_3 9)))
 (let (($x6223 (= cell_2_3 8)))
 (let (($x7993 (= cell_2_3 7)))
 (let (($x5979 (= cell_2_3 6)))
 (let (($x3728 (= cell_2_3 5)))
 (let (($x340 (= cell_2_3 4)))
 (let (($x1120 (= cell_2_3 3)))
 (let (($x1634 (= cell_2_3 2)))
 (let (($x1111 (= cell_2_3 1)))
 (or $x1111 $x1634 $x1120 $x340 $x3728 $x5979 $x7993 $x6223 $x201)))))))))))
(assert
 (let (($x7403 (= cell_3_3 9)))
 (let (($x1353 (= cell_3_3 8)))
 (let (($x5108 (= cell_3_3 7)))
 (let (($x6393 (= cell_3_3 6)))
 (let (($x8459 (= cell_3_3 5)))
 (let (($x950 (= cell_3_3 4)))
 (let (($x2978 (= cell_3_3 3)))
 (let (($x4074 (= cell_3_3 2)))
 (let (($x7771 (= cell_3_3 1)))
 (or $x7771 $x4074 $x2978 $x950 $x8459 $x6393 $x5108 $x1353 $x7403)))))))))))
(assert
 (let (($x10149 (= cell_4_3 9)))
 (let (($x1630 (= cell_4_3 8)))
 (let (($x78 (= cell_4_3 7)))
 (let (($x2074 (= cell_4_3 6)))
 (let (($x9986 (= cell_4_3 5)))
 (let (($x6480 (= cell_4_3 4)))
 (let (($x6051 (= cell_4_3 3)))
 (let (($x5575 (= cell_4_3 2)))
 (let (($x10127 (= cell_4_3 1)))
 (or $x10127 $x5575 $x6051 $x6480 $x9986 $x2074 $x78 $x1630 $x10149)))))))))))
(assert
 (let (($x9189 (= cell_5_3 1)))
 (or $x9189 (= cell_5_3 2) (= cell_5_3 3) (= cell_5_3 4) (= cell_5_3 5) (= cell_5_3 6) (= cell_5_3 7) (= cell_5_3 8) (= cell_5_3 9))))
(assert
 (let (($x255 (= cell_6_3 9)))
 (let (($x6209 (= cell_6_3 8)))
 (let (($x9027 (= cell_6_3 7)))
 (let (($x6947 (= cell_6_3 6)))
 (let (($x4418 (= cell_6_3 5)))
 (let (($x10138 (= cell_6_3 4)))
 (let (($x1260 (= cell_6_3 3)))
 (let (($x7357 (= cell_6_3 2)))
 (let (($x2026 (= cell_6_3 1)))
 (or $x2026 $x7357 $x1260 $x10138 $x4418 $x6947 $x9027 $x6209 $x255)))))))))))
(assert
 (let (($x4939 (= cell_7_3 9)))
 (let (($x6977 (= cell_7_3 8)))
 (let (($x109 (= cell_7_3 7)))
 (let (($x8567 (= cell_7_3 6)))
 (let (($x4112 (= cell_7_3 5)))
 (let (($x1313 (= cell_7_3 4)))
 (let (($x491 (= cell_7_3 3)))
 (let (($x2999 (= cell_7_3 2)))
 (let (($x6249 (= cell_7_3 1)))
 (or $x6249 $x2999 $x491 $x1313 $x4112 $x8567 $x109 $x6977 $x4939)))))))))))
(assert
 (let (($x9523 (= cell_8_3 9)))
 (let (($x7284 (= cell_8_3 8)))
 (let (($x8809 (= cell_8_3 7)))
 (let (($x10068 (= cell_8_3 6)))
 (let (($x2068 (= cell_8_3 5)))
 (let (($x4594 (= cell_8_3 4)))
 (let (($x7774 (= cell_8_3 3)))
 (let (($x4069 (= cell_8_3 2)))
 (let (($x4997 (= cell_8_3 1)))
 (or $x4997 $x4069 $x7774 $x4594 $x2068 $x10068 $x8809 $x7284 $x9523)))))))))))
(assert
 (let (($x822 (= cell_9_3 1)))
 (or $x822 (= cell_9_3 2) (= cell_9_3 3) (= cell_9_3 4) (= cell_9_3 5) (= cell_9_3 6) (= cell_9_3 7) (= cell_9_3 8) (= cell_9_3 9))))
(assert
 (let (($x2612 (= cell_1_4 9)))
 (let (($x7420 (= cell_1_4 8)))
 (let (($x9187 (= cell_1_4 7)))
 (let (($x4135 (= cell_1_4 6)))
 (let (($x5432 (= cell_1_4 5)))
 (let (($x790 (= cell_1_4 4)))
 (let (($x5282 (= cell_1_4 3)))
 (let (($x1135 (= cell_1_4 2)))
 (let (($x3873 (= cell_1_4 1)))
 (or $x3873 $x1135 $x5282 $x790 $x5432 $x4135 $x9187 $x7420 $x2612)))))))))))
(assert
 (let (($x3571 (= cell_2_4 1)))
 (or $x3571 (= cell_2_4 2) (= cell_2_4 3) (= cell_2_4 4) (= cell_2_4 5) (= cell_2_4 6) (= cell_2_4 7) (= cell_2_4 8) (= cell_2_4 9))))
(assert
 (let (($x3389 (= cell_3_4 2)))
 (or (= cell_3_4 1) $x3389 (= cell_3_4 3) (= cell_3_4 4) (= cell_3_4 5) (= cell_3_4 6) (= cell_3_4 7) (= cell_3_4 8) (= cell_3_4 9))))
(assert
 (let (($x2579 (= cell_4_4 9)))
 (let (($x480 (= cell_4_4 8)))
 (let (($x960 (= cell_4_4 7)))
 (let (($x7651 (= cell_4_4 6)))
 (let (($x6355 (= cell_4_4 5)))
 (let (($x43 (= cell_4_4 4)))
 (let (($x1651 (= cell_4_4 3)))
 (let (($x10211 (= cell_4_4 2)))
 (let (($x4426 (= cell_4_4 1)))
 (or $x4426 $x10211 $x1651 $x43 $x6355 $x7651 $x960 $x480 $x2579)))))))))))
(assert
 (let (($x6408 (= cell_5_4 9)))
 (let (($x9842 (= cell_5_4 8)))
 (let (($x3933 (= cell_5_4 7)))
 (let (($x275 (= cell_5_4 6)))
 (let (($x5660 (= cell_5_4 5)))
 (let (($x8503 (= cell_5_4 4)))
 (let (($x2336 (= cell_5_4 3)))
 (let (($x5683 (= cell_5_4 2)))
 (let (($x5600 (= cell_5_4 1)))
 (or $x5600 $x5683 $x2336 $x8503 $x5660 $x275 $x3933 $x9842 $x6408)))))))))))
(assert
 (let (($x470 (= cell_6_4 9)))
 (let (($x4376 (= cell_6_4 8)))
 (let (($x113 (= cell_6_4 7)))
 (let (($x1112 (= cell_6_4 6)))
 (let (($x3974 (= cell_6_4 5)))
 (let (($x4621 (= cell_6_4 4)))
 (let (($x3355 (= cell_6_4 3)))
 (let (($x2063 (= cell_6_4 2)))
 (let (($x7488 (= cell_6_4 1)))
 (or $x7488 $x2063 $x3355 $x4621 $x3974 $x1112 $x113 $x4376 $x470)))))))))))
(assert
 (let (($x9101 (= cell_7_4 9)))
 (let (($x3331 (= cell_7_4 8)))
 (let (($x5296 (= cell_7_4 7)))
 (let (($x7445 (= cell_7_4 6)))
 (let (($x1615 (= cell_7_4 5)))
 (let (($x2013 (= cell_7_4 4)))
 (let (($x5997 (= cell_7_4 3)))
 (let (($x6590 (= cell_7_4 2)))
 (let (($x7542 (= cell_7_4 1)))
 (or $x7542 $x6590 $x5997 $x2013 $x1615 $x7445 $x5296 $x3331 $x9101)))))))))))
(assert
 (let (($x878 (= cell_8_4 9)))
 (let (($x9481 (= cell_8_4 8)))
 (let (($x5983 (= cell_8_4 7)))
 (let (($x5180 (= cell_8_4 6)))
 (let (($x7217 (= cell_8_4 5)))
 (let (($x534 (= cell_8_4 4)))
 (let (($x2056 (= cell_8_4 3)))
 (let (($x2170 (= cell_8_4 2)))
 (let (($x5357 (= cell_8_4 1)))
 (or $x5357 $x2170 $x2056 $x534 $x7217 $x5180 $x5983 $x9481 $x878)))))))))))
(assert
 (let (($x3923 (= cell_9_4 2)))
 (let (($x7642 (= cell_9_4 1)))
 (or $x7642 $x3923 (= cell_9_4 3) (= cell_9_4 4) (= cell_9_4 5) (= cell_9_4 6) (= cell_9_4 7) (= cell_9_4 8) (= cell_9_4 9)))))
(assert
 (let (($x6278 (= cell_1_5 9)))
 (let (($x5131 (= cell_1_5 8)))
 (let (($x230 (= cell_1_5 7)))
 (let (($x8510 (= cell_1_5 6)))
 (let (($x7091 (= cell_1_5 5)))
 (let (($x1326 (= cell_1_5 4)))
 (let (($x1593 (= cell_1_5 3)))
 (let (($x7277 (= cell_1_5 2)))
 (let (($x8141 (= cell_1_5 1)))
 (or $x8141 $x7277 $x1593 $x1326 $x7091 $x8510 $x230 $x5131 $x6278)))))))))))
(assert
 (let (($x8104 (= cell_2_5 9)))
 (let (($x8580 (= cell_2_5 8)))
 (let (($x4466 (= cell_2_5 7)))
 (let (($x1427 (= cell_2_5 6)))
 (let (($x9487 (= cell_2_5 5)))
 (let (($x1934 (= cell_2_5 4)))
 (let (($x4872 (= cell_2_5 3)))
 (let (($x1444 (= cell_2_5 2)))
 (let (($x7128 (= cell_2_5 1)))
 (or $x7128 $x1444 $x4872 $x1934 $x9487 $x1427 $x4466 $x8580 $x8104)))))))))))
(assert
 (let (($x4031 (= cell_3_5 9)))
 (let (($x7971 (= cell_3_5 8)))
 (let (($x3846 (= cell_3_5 7)))
 (let (($x1384 (= cell_3_5 6)))
 (let (($x3486 (= cell_3_5 5)))
 (let (($x9892 (= cell_3_5 4)))
 (let (($x3541 (= cell_3_5 3)))
 (let (($x2280 (= cell_3_5 2)))
 (let (($x2915 (= cell_3_5 1)))
 (or $x2915 $x2280 $x3541 $x9892 $x3486 $x1384 $x3846 $x7971 $x4031)))))))))))
(assert
 (let (($x9971 (= cell_4_5 9)))
 (let (($x1528 (= cell_4_5 8)))
 (let (($x7801 (= cell_4_5 7)))
 (let (($x3448 (= cell_4_5 6)))
 (let (($x8820 (= cell_4_5 5)))
 (let (($x7271 (= cell_4_5 4)))
 (let (($x8167 (= cell_4_5 3)))
 (let (($x669 (= cell_4_5 2)))
 (let (($x9517 (= cell_4_5 1)))
 (or $x9517 $x669 $x8167 $x7271 $x8820 $x3448 $x7801 $x1528 $x9971)))))))))))
(assert
 (let (($x9626 (= cell_5_5 9)))
 (let (($x9749 (= cell_5_5 8)))
 (let (($x3440 (= cell_5_5 7)))
 (let (($x6007 (= cell_5_5 6)))
 (let (($x5769 (= cell_5_5 5)))
 (let (($x8730 (= cell_5_5 4)))
 (let (($x2677 (= cell_5_5 3)))
 (let (($x65 (= cell_5_5 2)))
 (let (($x2267 (= cell_5_5 1)))
 (or $x2267 $x65 $x2677 $x8730 $x5769 $x6007 $x3440 $x9749 $x9626)))))))))))
(assert
 (let (($x3498 (= cell_6_5 9)))
 (let (($x5402 (= cell_6_5 8)))
 (let (($x6183 (= cell_6_5 7)))
 (let (($x5301 (= cell_6_5 6)))
 (let (($x2495 (= cell_6_5 5)))
 (let (($x7955 (= cell_6_5 4)))
 (let (($x4454 (= cell_6_5 3)))
 (let (($x3928 (= cell_6_5 2)))
 (let (($x705 (= cell_6_5 1)))
 (or $x705 $x3928 $x4454 $x7955 $x2495 $x5301 $x6183 $x5402 $x3498)))))))))))
(assert
 (let (($x1644 (= cell_7_5 1)))
 (or $x1644 (= cell_7_5 2) (= cell_7_5 3) (= cell_7_5 4) (= cell_7_5 5) (= cell_7_5 6) (= cell_7_5 7) (= cell_7_5 8) (= cell_7_5 9))))
(assert
 (let (($x3394 (= cell_8_5 9)))
 (let (($x9783 (= cell_8_5 8)))
 (let (($x7777 (= cell_8_5 7)))
 (let (($x5691 (= cell_8_5 6)))
 (let (($x10335 (= cell_8_5 5)))
 (let (($x5235 (= cell_8_5 4)))
 (let (($x192 (= cell_8_5 3)))
 (let (($x4809 (= cell_8_5 2)))
 (let (($x10085 (= cell_8_5 1)))
 (or $x10085 $x4809 $x192 $x5235 $x10335 $x5691 $x7777 $x9783 $x3394)))))))))))
(assert
 (let (($x6832 (= cell_9_5 1)))
 (or $x6832 (= cell_9_5 2) (= cell_9_5 3) (= cell_9_5 4) (= cell_9_5 5) (= cell_9_5 6) (= cell_9_5 7) (= cell_9_5 8) (= cell_9_5 9))))
(assert
 (let (($x8139 (= cell_1_6 9)))
 (let (($x6127 (= cell_1_6 8)))
 (let (($x5798 (= cell_1_6 7)))
 (let (($x8195 (= cell_1_6 6)))
 (let (($x1890 (= cell_1_6 5)))
 (let (($x2084 (= cell_1_6 4)))
 (let (($x4336 (= cell_1_6 3)))
 (let (($x8857 (= cell_1_6 2)))
 (let (($x8561 (= cell_1_6 1)))
 (or $x8561 $x8857 $x4336 $x2084 $x1890 $x8195 $x5798 $x6127 $x8139)))))))))))
(assert
 (let (($x9928 (= cell_2_6 9)))
 (let (($x1943 (= cell_2_6 8)))
 (let (($x5507 (= cell_2_6 7)))
 (let (($x9752 (= cell_2_6 6)))
 (let (($x9603 (= cell_2_6 5)))
 (let (($x7646 (= cell_2_6 4)))
 (let (($x3971 (= cell_2_6 3)))
 (let (($x4595 (= cell_2_6 2)))
 (let (($x3077 (= cell_2_6 1)))
 (or $x3077 $x4595 $x3971 $x7646 $x9603 $x9752 $x5507 $x1943 $x9928)))))))))))
(assert
 (let (($x1065 (= cell_3_6 9)))
 (let (($x490 (= cell_3_6 8)))
 (let (($x1144 (= cell_3_6 7)))
 (let (($x4264 (= cell_3_6 6)))
 (let (($x6559 (= cell_3_6 5)))
 (let (($x8573 (= cell_3_6 4)))
 (let (($x2694 (= cell_3_6 3)))
 (let (($x4391 (= cell_3_6 2)))
 (let (($x596 (= cell_3_6 1)))
 (or $x596 $x4391 $x2694 $x8573 $x6559 $x4264 $x1144 $x490 $x1065)))))))))))
(assert
 (let (($x9547 (= cell_4_6 2)))
 (or (= cell_4_6 1) $x9547 (= cell_4_6 3) (= cell_4_6 4) (= cell_4_6 5) (= cell_4_6 6) (= cell_4_6 7) (= cell_4_6 8) (= cell_4_6 9))))
(assert
 (let (($x6227 (= cell_5_6 9)))
 (let (($x2806 (= cell_5_6 8)))
 (let (($x6155 (= cell_5_6 7)))
 (let (($x2860 (= cell_5_6 6)))
 (let (($x4847 (= cell_5_6 5)))
 (let (($x1763 (= cell_5_6 4)))
 (let (($x4190 (= cell_5_6 3)))
 (let (($x9527 (= cell_5_6 2)))
 (let (($x7254 (= cell_5_6 1)))
 (or $x7254 $x9527 $x4190 $x1763 $x4847 $x2860 $x6155 $x2806 $x6227)))))))))))
(assert
 (let (($x4270 (= cell_6_6 1)))
 (or $x4270 (= cell_6_6 2) (= cell_6_6 3) (= cell_6_6 4) (= cell_6_6 5) (= cell_6_6 6) (= cell_6_6 7) (= cell_6_6 8) (= cell_6_6 9))))
(assert
 (let (($x8936 (= cell_7_6 9)))
 (let (($x6513 (= cell_7_6 8)))
 (let (($x9344 (= cell_7_6 7)))
 (let (($x2787 (= cell_7_6 6)))
 (let (($x9437 (= cell_7_6 5)))
 (let (($x8583 (= cell_7_6 4)))
 (let (($x10096 (= cell_7_6 3)))
 (let (($x8374 (= cell_7_6 2)))
 (let (($x9361 (= cell_7_6 1)))
 (or $x9361 $x8374 $x10096 $x8583 $x9437 $x2787 $x9344 $x6513 $x8936)))))))))))
(assert
 (let (($x388 (= cell_8_6 9)))
 (let (($x7780 (= cell_8_6 8)))
 (let (($x7972 (= cell_8_6 7)))
 (let (($x2299 (= cell_8_6 6)))
 (let (($x6853 (= cell_8_6 5)))
 (let (($x485 (= cell_8_6 4)))
 (let (($x2893 (= cell_8_6 3)))
 (let (($x842 (= cell_8_6 2)))
 (let (($x8052 (= cell_8_6 1)))
 (or $x8052 $x842 $x2893 $x485 $x6853 $x2299 $x7972 $x7780 $x388)))))))))))
(assert
 (let (($x2785 (= cell_9_6 2)))
 (let (($x1775 (= cell_9_6 1)))
 (or $x1775 $x2785 (= cell_9_6 3) (= cell_9_6 4) (= cell_9_6 5) (= cell_9_6 6) (= cell_9_6 7) (= cell_9_6 8) (= cell_9_6 9)))))
(assert
 (let (($x763 (= cell_1_7 1)))
 (or $x763 (= cell_1_7 2) (= cell_1_7 3) (= cell_1_7 4) (= cell_1_7 5) (= cell_1_7 6) (= cell_1_7 7) (= cell_1_7 8) (= cell_1_7 9))))
(assert
 (let (($x1798 (= cell_2_7 9)))
 (let (($x5117 (= cell_2_7 8)))
 (let (($x4636 (= cell_2_7 7)))
 (let (($x6208 (= cell_2_7 6)))
 (let (($x259 (= cell_2_7 5)))
 (let (($x6478 (= cell_2_7 4)))
 (let (($x3235 (= cell_2_7 3)))
 (let (($x7240 (= cell_2_7 2)))
 (let (($x1367 (= cell_2_7 1)))
 (or $x1367 $x7240 $x3235 $x6478 $x259 $x6208 $x4636 $x5117 $x1798)))))))))))
(assert
 (let (($x9953 (= cell_3_7 9)))
 (let (($x2205 (= cell_3_7 8)))
 (let (($x5053 (= cell_3_7 7)))
 (let (($x768 (= cell_3_7 6)))
 (let (($x3750 (= cell_3_7 5)))
 (let (($x2535 (= cell_3_7 4)))
 (let (($x3962 (= cell_3_7 3)))
 (let (($x1373 (= cell_3_7 2)))
 (let (($x1197 (= cell_3_7 1)))
 (or $x1197 $x1373 $x3962 $x2535 $x3750 $x768 $x5053 $x2205 $x9953)))))))))))
(assert
 (let (($x777 (= cell_4_7 9)))
 (let (($x4219 (= cell_4_7 8)))
 (let (($x1643 (= cell_4_7 7)))
 (let (($x9607 (= cell_4_7 6)))
 (let (($x10163 (= cell_4_7 5)))
 (let (($x4980 (= cell_4_7 4)))
 (let (($x9435 (= cell_4_7 3)))
 (let (($x748 (= cell_4_7 2)))
 (let (($x6973 (= cell_4_7 1)))
 (or $x6973 $x748 $x9435 $x4980 $x10163 $x9607 $x1643 $x4219 $x777)))))))))))
(assert
 (let (($x2185 (= cell_5_7 9)))
 (let (($x6247 (= cell_5_7 8)))
 (let (($x2847 (= cell_5_7 7)))
 (let (($x2489 (= cell_5_7 6)))
 (let (($x9672 (= cell_5_7 5)))
 (let (($x7827 (= cell_5_7 4)))
 (let (($x5351 (= cell_5_7 3)))
 (let (($x9140 (= cell_5_7 2)))
 (let (($x1523 (= cell_5_7 1)))
 (or $x1523 $x9140 $x5351 $x7827 $x9672 $x2489 $x2847 $x6247 $x2185)))))))))))
(assert
 (let (($x9706 (= cell_6_7 9)))
 (let (($x3653 (= cell_6_7 8)))
 (let (($x6354 (= cell_6_7 7)))
 (let (($x7940 (= cell_6_7 6)))
 (let (($x3073 (= cell_6_7 5)))
 (let (($x1041 (= cell_6_7 4)))
 (let (($x9192 (= cell_6_7 3)))
 (let (($x1010 (= cell_6_7 2)))
 (let (($x1174 (= cell_6_7 1)))
 (or $x1174 $x1010 $x9192 $x1041 $x3073 $x7940 $x6354 $x3653 $x9706)))))))))))
(assert
 (let (($x574 (= cell_7_7 2)))
 (or (= cell_7_7 1) $x574 (= cell_7_7 3) (= cell_7_7 4) (= cell_7_7 5) (= cell_7_7 6) (= cell_7_7 7) (= cell_7_7 8) (= cell_7_7 9))))
(assert
 (let (($x3458 (= cell_8_7 9)))
 (let (($x5702 (= cell_8_7 8)))
 (let (($x346 (= cell_8_7 7)))
 (let (($x9757 (= cell_8_7 6)))
 (let (($x8147 (= cell_8_7 5)))
 (let (($x3624 (= cell_8_7 4)))
 (let (($x10094 (= cell_8_7 3)))
 (let (($x8254 (= cell_8_7 2)))
 (let (($x8716 (= cell_8_7 1)))
 (or $x8716 $x8254 $x10094 $x3624 $x8147 $x9757 $x346 $x5702 $x3458)))))))))))
(assert
 (let (($x4930 (= cell_9_7 2)))
 (let (($x2531 (= cell_9_7 1)))
 (or $x2531 $x4930 (= cell_9_7 3) (= cell_9_7 4) (= cell_9_7 5) (= cell_9_7 6) (= cell_9_7 7) (= cell_9_7 8) (= cell_9_7 9)))))
(assert
 (let (($x5003 (= cell_1_8 2)))
 (or (= cell_1_8 1) $x5003 (= cell_1_8 3) (= cell_1_8 4) (= cell_1_8 5) (= cell_1_8 6) (= cell_1_8 7) (= cell_1_8 8) (= cell_1_8 9))))
(assert
 (let (($x1107 (= cell_2_8 9)))
 (let (($x3131 (= cell_2_8 8)))
 (let (($x6250 (= cell_2_8 7)))
 (let (($x413 (= cell_2_8 6)))
 (let (($x8786 (= cell_2_8 5)))
 (let (($x3133 (= cell_2_8 4)))
 (let (($x4637 (= cell_2_8 3)))
 (let (($x7737 (= cell_2_8 2)))
 (let (($x2178 (= cell_2_8 1)))
 (or $x2178 $x7737 $x4637 $x3133 $x8786 $x413 $x6250 $x3131 $x1107)))))))))))
(assert
 (let (($x7202 (= cell_3_8 9)))
 (let (($x7638 (= cell_3_8 8)))
 (let (($x5103 (= cell_3_8 7)))
 (let (($x8961 (= cell_3_8 6)))
 (let (($x10258 (= cell_3_8 5)))
 (let (($x6787 (= cell_3_8 4)))
 (let (($x2458 (= cell_3_8 3)))
 (let (($x4285 (= cell_3_8 2)))
 (let (($x3633 (= cell_3_8 1)))
 (or $x3633 $x4285 $x2458 $x6787 $x10258 $x8961 $x5103 $x7638 $x7202)))))))))))
(assert
 (let (($x4224 (= cell_4_8 1)))
 (or $x4224 (= cell_4_8 2) (= cell_4_8 3) (= cell_4_8 4) (= cell_4_8 5) (= cell_4_8 6) (= cell_4_8 7) (= cell_4_8 8) (= cell_4_8 9))))
(assert
 (let (($x6492 (= cell_5_8 9)))
 (let (($x5113 (= cell_5_8 8)))
 (let (($x269 (= cell_5_8 7)))
 (let (($x9682 (= cell_5_8 6)))
 (let (($x1568 (= cell_5_8 5)))
 (let (($x10034 (= cell_5_8 4)))
 (let (($x2588 (= cell_5_8 3)))
 (let (($x9285 (= cell_5_8 2)))
 (let (($x8691 (= cell_5_8 1)))
 (or $x8691 $x9285 $x2588 $x10034 $x1568 $x9682 $x269 $x5113 $x6492)))))))))))
(assert
 (let (($x9624 (= cell_6_8 9)))
 (let (($x9102 (= cell_6_8 8)))
 (let (($x9948 (= cell_6_8 7)))
 (let (($x5745 (= cell_6_8 6)))
 (let (($x418 (= cell_6_8 5)))
 (let (($x6459 (= cell_6_8 4)))
 (let (($x7905 (= cell_6_8 3)))
 (let (($x672 (= cell_6_8 2)))
 (let (($x7056 (= cell_6_8 1)))
 (or $x7056 $x672 $x7905 $x6459 $x418 $x5745 $x9948 $x9102 $x9624)))))))))))
(assert
 (let (($x6819 (= cell_7_8 9)))
 (let (($x6803 (= cell_7_8 8)))
 (let (($x6802 (= cell_7_8 7)))
 (let (($x6167 (= cell_7_8 6)))
 (let (($x959 (= cell_7_8 5)))
 (let (($x5171 (= cell_7_8 4)))
 (let (($x10057 (= cell_7_8 3)))
 (let (($x9638 (= cell_7_8 2)))
 (let (($x9812 (= cell_7_8 1)))
 (or $x9812 $x9638 $x10057 $x5171 $x959 $x6167 $x6802 $x6803 $x6819)))))))))))
(assert
 (let (($x8723 (= cell_8_8 9)))
 (let (($x679 (= cell_8_8 8)))
 (let (($x4473 (= cell_8_8 7)))
 (let (($x4429 (= cell_8_8 6)))
 (let (($x3487 (= cell_8_8 5)))
 (let (($x3725 (= cell_8_8 4)))
 (let (($x2872 (= cell_8_8 3)))
 (let (($x26 (= cell_8_8 2)))
 (let (($x3637 (= cell_8_8 1)))
 (or $x3637 $x26 $x2872 $x3725 $x3487 $x4429 $x4473 $x679 $x8723)))))))))))
(assert
 (let (($x7881 (= cell_9_8 2)))
 (let (($x4736 (= cell_9_8 1)))
 (or $x4736 $x7881 (= cell_9_8 3) (= cell_9_8 4) (= cell_9_8 5) (= cell_9_8 6) (= cell_9_8 7) (= cell_9_8 8) (= cell_9_8 9)))))
(assert
 (let (($x4038 (= cell_1_9 9)))
 (let (($x3179 (= cell_1_9 8)))
 (let (($x4353 (= cell_1_9 7)))
 (let (($x5665 (= cell_1_9 6)))
 (let (($x8106 (= cell_1_9 5)))
 (let (($x10226 (= cell_1_9 4)))
 (let (($x6158 (= cell_1_9 3)))
 (let (($x283 (= cell_1_9 2)))
 (let (($x942 (= cell_1_9 1)))
 (or $x942 $x283 $x6158 $x10226 $x8106 $x5665 $x4353 $x3179 $x4038)))))))))))
(assert
 (let (($x3909 (= cell_2_9 9)))
 (let (($x1806 (= cell_2_9 8)))
 (let (($x7429 (= cell_2_9 7)))
 (let (($x3716 (= cell_2_9 6)))
 (let (($x3764 (= cell_2_9 5)))
 (let (($x8433 (= cell_2_9 4)))
 (let (($x8324 (= cell_2_9 3)))
 (let (($x7825 (= cell_2_9 2)))
 (let (($x6318 (= cell_2_9 1)))
 (or $x6318 $x7825 $x8324 $x8433 $x3764 $x3716 $x7429 $x1806 $x3909)))))))))))
(assert
 (let (($x4895 (= cell_3_9 9)))
 (let (($x9614 (= cell_3_9 8)))
 (let (($x9206 (= cell_3_9 7)))
 (let (($x9664 (= cell_3_9 6)))
 (let (($x8819 (= cell_3_9 5)))
 (let (($x8589 (= cell_3_9 4)))
 (let (($x3207 (= cell_3_9 3)))
 (let (($x4100 (= cell_3_9 2)))
 (let (($x3679 (= cell_3_9 1)))
 (or $x3679 $x4100 $x3207 $x8589 $x8819 $x9664 $x9206 $x9614 $x4895)))))))))))
(assert
 (let (($x1127 (= cell_4_9 9)))
 (let (($x8880 (= cell_4_9 8)))
 (let (($x591 (= cell_4_9 7)))
 (let (($x512 (= cell_4_9 6)))
 (let (($x10144 (= cell_4_9 5)))
 (let (($x8175 (= cell_4_9 4)))
 (let (($x6575 (= cell_4_9 3)))
 (let (($x7196 (= cell_4_9 2)))
 (let (($x7534 (= cell_4_9 1)))
 (or $x7534 $x7196 $x6575 $x8175 $x10144 $x512 $x591 $x8880 $x1127)))))))))))
(assert
 (let (($x4040 (= cell_5_9 9)))
 (let (($x9387 (= cell_5_9 8)))
 (let (($x9906 (= cell_5_9 7)))
 (let (($x3266 (= cell_5_9 6)))
 (let (($x5599 (= cell_5_9 5)))
 (let (($x2085 (= cell_5_9 4)))
 (let (($x1102 (= cell_5_9 3)))
 (let (($x3053 (= cell_5_9 2)))
 (let (($x9395 (= cell_5_9 1)))
 (or $x9395 $x3053 $x1102 $x2085 $x5599 $x3266 $x9906 $x9387 $x4040)))))))))))
(assert
 (let (($x3299 (= cell_6_9 2)))
 (or (= cell_6_9 1) $x3299 (= cell_6_9 3) (= cell_6_9 4) (= cell_6_9 5) (= cell_6_9 6) (= cell_6_9 7) (= cell_6_9 8) (= cell_6_9 9))))
(assert
 (let (($x8735 (= cell_7_9 9)))
 (let (($x10014 (= cell_7_9 8)))
 (let (($x726 (= cell_7_9 7)))
 (let (($x1461 (= cell_7_9 6)))
 (let (($x9725 (= cell_7_9 5)))
 (let (($x2414 (= cell_7_9 4)))
 (let (($x9055 (= cell_7_9 3)))
 (let (($x9198 (= cell_7_9 2)))
 (let (($x5189 (= cell_7_9 1)))
 (or $x5189 $x9198 $x9055 $x2414 $x9725 $x1461 $x726 $x10014 $x8735)))))))))))
(assert
 (let (($x6561 (= cell_8_9 1)))
 (or $x6561 (= cell_8_9 2) (= cell_8_9 3) (= cell_8_9 4) (= cell_8_9 5) (= cell_8_9 6) (= cell_8_9 7) (= cell_8_9 8) (= cell_8_9 9))))
(assert
 (let (($x1131 (= cell_9_9 2)))
 (let (($x1051 (= cell_9_9 1)))
 (or $x1051 $x1131 (= cell_9_9 3) (= cell_9_9 4) (= cell_9_9 5) (= cell_9_9 6) (= cell_9_9 7) (= cell_9_9 8) (= cell_9_9 9)))))
(assert
 (and (distinct cell_1_1 cell_1_2 cell_1_3 cell_1_4 cell_1_5 cell_1_6 cell_1_7 cell_1_8 cell_1_9) true))
(assert
 (and (distinct cell_2_1 cell_2_2 cell_2_3 cell_2_4 cell_2_5 cell_2_6 cell_2_7 cell_2_8 cell_2_9) true))
(assert
 (and (distinct cell_3_1 cell_3_2 cell_3_3 cell_3_4 cell_3_5 cell_3_6 cell_3_7 cell_3_8 cell_3_9) true))
(assert
 (and (distinct cell_4_1 cell_4_2 cell_4_3 cell_4_4 cell_4_5 cell_4_6 cell_4_7 cell_4_8 cell_4_9) true))
(assert
 (and (distinct cell_5_1 cell_5_2 cell_5_3 cell_5_4 cell_5_5 cell_5_6 cell_5_7 cell_5_8 cell_5_9) true))
(assert
 (and (distinct cell_6_1 cell_6_2 cell_6_3 cell_6_4 cell_6_5 cell_6_6 cell_6_7 cell_6_8 cell_6_9) true))
(assert
 (and (distinct cell_7_1 cell_7_2 cell_7_3 cell_7_4 cell_7_5 cell_7_6 cell_7_7 cell_7_8 cell_7_9) true))
(assert
 (and (distinct cell_8_1 cell_8_2 cell_8_3 cell_8_4 cell_8_5 cell_8_6 cell_8_7 cell_8_8 cell_8_9) true))
(assert
 (and (distinct cell_9_1 cell_9_2 cell_9_3 cell_9_4 cell_9_5 cell_9_6 cell_9_7 cell_9_8 cell_9_9) true))
(assert
 (and (distinct cell_1_1 cell_2_1 cell_3_1 cell_4_1 cell_5_1 cell_6_1 cell_7_1 cell_8_1 cell_9_1) true))
(assert
 (and (distinct cell_1_2 cell_2_2 cell_3_2 cell_4_2 cell_5_2 cell_6_2 cell_7_2 cell_8_2 cell_9_2) true))
(assert
 (and (distinct cell_1_3 cell_2_3 cell_3_3 cell_4_3 cell_5_3 cell_6_3 cell_7_3 cell_8_3 cell_9_3) true))
(assert
 (and (distinct cell_1_4 cell_2_4 cell_3_4 cell_4_4 cell_5_4 cell_6_4 cell_7_4 cell_8_4 cell_9_4) true))
(assert
 (and (distinct cell_1_5 cell_2_5 cell_3_5 cell_4_5 cell_5_5 cell_6_5 cell_7_5 cell_8_5 cell_9_5) true))
(assert
 (and (distinct cell_1_6 cell_2_6 cell_3_6 cell_4_6 cell_5_6 cell_6_6 cell_7_6 cell_8_6 cell_9_6) true))
(assert
 (and (distinct cell_1_7 cell_2_7 cell_3_7 cell_4_7 cell_5_7 cell_6_7 cell_7_7 cell_8_7 cell_9_7) true))
(assert
 (and (distinct cell_1_8 cell_2_8 cell_3_8 cell_4_8 cell_5_8 cell_6_8 cell_7_8 cell_8_8 cell_9_8) true))
(assert
 (and (distinct cell_1_9 cell_2_9 cell_3_9 cell_4_9 cell_5_9 cell_6_9 cell_7_9 cell_8_9 cell_9_9) true))
(assert
 (and (distinct cell_1_1 cell_1_2 cell_1_3 cell_2_1 cell_2_2 cell_2_3 cell_3_1 cell_3_2 cell_3_3) true))
(assert
 (and (distinct cell_1_4 cell_1_5 cell_1_6 cell_2_4 cell_2_5 cell_2_6 cell_3_4 cell_3_5 cell_3_6) true))
(assert
 (and (distinct cell_1_7 cell_1_8 cell_1_9 cell_2_7 cell_2_8 cell_2_9 cell_3_7 cell_3_8 cell_3_9) true))
(assert
 (and (distinct cell_4_1 cell_4_2 cell_4_3 cell_5_1 cell_5_2 cell_5_3 cell_6_1 cell_6_2 cell_6_3) true))
(assert
 (and (distinct cell_4_4 cell_4_5 cell_4_6 cell_5_4 cell_5_5 cell_5_6 cell_6_4 cell_6_5 cell_6_6) true))
(assert
 (and (distinct cell_4_7 cell_4_8 cell_4_9 cell_5_7 cell_5_8 cell_5_9 cell_6_7 cell_6_8 cell_6_9) true))
(assert
 (and (distinct cell_7_1 cell_7_2 cell_7_3 cell_8_1 cell_8_2 cell_8_3 cell_9_1 cell_9_2 cell_9_3) true))
(assert
 (and (distinct cell_7_4 cell_7_5 cell_7_6 cell_8_4 cell_8_5 cell_8_6 cell_9_4 cell_9_5 cell_9_6) true))
(assert
 (and (distinct cell_7_7 cell_7_8 cell_7_9 cell_8_7 cell_8_8 cell_8_9 cell_9_7 cell_9_8 cell_9_9) true))
(assert
 (let (($x3665 (and (distinct cell_5_9 cell_6_8 cell_7_7 cell_8_6) true)))
 (let (($x7537 (and (distinct cell_2_9 cell_3_8 cell_4_7 cell_5_6 cell_6_5 cell_7_4 cell_8_3 cell_9_2) true)))
 (let (($x6506 (and (distinct cell_1_8 cell_2_7 cell_3_6 cell_4_5 cell_5_4 cell_6_3 cell_7_2 cell_8_1) true)))
 (let (($x3444 (and (distinct cell_1_5 cell_2_4 cell_3_3 cell_4_2) true)))
 (let (($x5177 (and (distinct cell_5_1 cell_6_2 cell_7_3 cell_8_4) true)))
 (let (($x6261 (and (distinct cell_2_1 cell_3_2 cell_4_3 cell_5_4 cell_6_5 cell_7_6 cell_8_7 cell_9_8) true)))
 (let (($x3147 (and (distinct cell_1_2 cell_2_3 cell_3_4 cell_4_5 cell_5_6 cell_6_7 cell_7_8 cell_8_9) true)))
 (let (($x4076 (and (distinct cell_1_5 cell_2_6 cell_3_7 cell_4_8) true)))
 (and $x4076 $x3147 $x6261 $x5177 $x3444 $x6506 $x7537 $x3665))))))))))
(assert
 (= cell_8_3 2))
(check-sat)
